9
0 834 111 255 653 443 461 372 780
834 0 816 730 712 592 506 739 292
111 816 0 342 551 357 508 462 725
255 730 342 0 789 550 256 119 769
653 712 551 789 0 241 783 890 448
443 592 357 550 241 0 550 649 407
461 506 508 256 783 550 0 234 618
372 739 462 119 890 649 234 0 821
780 292 725 769 448 407 618 821 0
